(declare-fun temp682_1 () (_ BitVec 64))
(declare-fun var791270 () (_ BitVec 64))
(declare-fun temp682_2 () (_ BitVec 64))
(declare-fun temp682_3 () (_ BitVec 64))
(declare-fun var791287 () (_ BitVec 64))
(declare-fun var791267 () (_ BitVec 64))
(declare-fun var732381 () (_ BitVec 64))
(declare-fun var1060089 () (_ BitVec 64))
(declare-fun temp682_4 () (_ BitVec 64))
(declare-fun ARGNAME_keepdim_NAMEEND () (_ BitVec 64))
(declare-fun temp682_6 () (_ BitVec 64))
(declare-fun temp682_5 () (_ BitVec 64))
(declare-fun temp682_7 () (_ BitVec 64))
(declare-fun var4008049 () (_ BitVec 64))
(assert (= temp682_1 #x0000000000000001))
(assert (= var791270 temp682_1))
(assert (= temp682_2 #x0000000000000001))
(assert (= var791270 temp682_2))
(assert (= temp682_3 #x0000000000000004))
(assert (= var791287 temp682_3))
(assert (= var791267 var791287))
(assert (= var732381 var791267))
(assert (= var1060089 var732381))
(assert (= temp682_4 #x0000000000000001))
(assert (= ARGNAME_keepdim_NAMEEND temp682_4))
(assert (= temp682_6 #x0000000000000001))
(assert (= temp682_5 temp682_6))
(assert (= temp682_7 #x0000000000000000))
(assert (= var4008049 temp682_7))
(model-add temp682_1 () (_ BitVec 64) #x0000000000000001)
(model-add var791270 () (_ BitVec 64) #x0000000000000001)
(model-add temp682_2 () (_ BitVec 64) #x0000000000000001)






